(set-logic QF_NRA)
(declare-fun skoSM1 () Real)
(declare-fun skoSP1 () Real)
(declare-fun skoX () Real)
(declare-fun skoS () Real)
(assert (and (not (<= (+ (* (- 45) skoSM1) (* 6 skoSP1) (* (- 1215) (* skoSM1 skoSM1)) (* 270 (* skoSM1 skoSP1)) (* (- 12) (* skoSP1 skoSP1)) (* (- 24435) (* skoSM1 skoSM1 skoSM1)) (* 7290 (* skoSM1 skoSM1 skoSP1)) (* (- 540) (* skoSM1 skoSP1 skoSP1)) (* (- 393660) (* skoSM1 skoSM1 skoSM1 skoSM1)) (* 146610 (* skoSM1 skoSM1 skoSM1 skoSP1)) (* (- 14580) (* skoSM1 skoSM1 skoSP1 skoSP1)) (* (- 5263380) (* skoSM1 skoSM1 skoSM1 skoSM1 skoSM1)) (* 2361960 (* skoSM1 skoSM1 skoSM1 skoSM1 skoSP1)) (* (- 293220) (* skoSM1 skoSM1 skoSM1 skoSP1 skoSP1)) (* (- 59632200) (* skoSM1 skoSM1 skoSM1 skoSM1 skoSM1 skoSM1)) (* 31580280 (* skoSM1 skoSM1 skoSM1 skoSM1 skoSM1 skoSP1)) (* (- 4723920) (* skoSM1 skoSM1 skoSM1 skoSM1 skoSP1 skoSP1)) (* (- 578680200) (* skoSM1 skoSM1 skoSM1 skoSM1 skoSM1 skoSM1 skoSM1)) (* 357793200 (* skoSM1 skoSM1 skoSM1 skoSM1 skoSM1 skoSM1 skoSP1)) (* (- 63160560) (* skoSM1 skoSM1 skoSM1 skoSM1 skoSM1 skoSP1 skoSP1)) (* (- 4818398400) (* skoSM1 skoSM1 skoSM1 skoSM1 skoSM1 skoSM1 skoSM1 skoSM1)) (* 3472081200 (* skoSM1 skoSM1 skoSM1 skoSM1 skoSM1 skoSM1 skoSM1 skoSP1)) (* (- 715586400) (* skoSM1 skoSM1 skoSM1 skoSM1 skoSM1 skoSM1 skoSP1 skoSP1)) (* (- 34295659200) (* skoSM1 skoSM1 skoSM1 skoSM1 skoSM1 skoSM1 skoSM1 skoSM1 skoSM1)) (* 28910390400 (* skoSM1 skoSM1 skoSM1 skoSM1 skoSM1 skoSM1 skoSM1 skoSM1 skoSP1)) (* (- 6944162400) (* skoSM1 skoSM1 skoSM1 skoSM1 skoSM1 skoSM1 skoSM1 skoSP1 skoSP1)) (* (- 206624260800) (* skoSM1 skoSM1 skoSM1 skoSM1 skoSM1 skoSM1 skoSM1 skoSM1 skoSM1 skoSM1)) (* 205773955200 (* skoSM1 skoSM1 skoSM1 skoSM1 skoSM1 skoSM1 skoSM1 skoSM1 skoSM1 skoSP1)) (* (- 57820780800) (* skoSM1 skoSM1 skoSM1 skoSM1 skoSM1 skoSM1 skoSM1 skoSM1 skoSP1 skoSP1)) (* (- 1033121304000) (* skoSM1 skoSM1 skoSM1 skoSM1 skoSM1 skoSM1 skoSM1 skoSM1 skoSM1 skoSM1 skoSM1)) (* 1239745564800 (* skoSM1 skoSM1 skoSM1 skoSM1 skoSM1 skoSM1 skoSM1 skoSM1 skoSM1 skoSM1 skoSP1)) (* (- 411547910400) (* skoSM1 skoSM1 skoSM1 skoSM1 skoSM1 skoSM1 skoSM1 skoSM1 skoSM1 skoSP1 skoSP1)) (* (- 4132485216000) (* skoSM1 skoSM1 skoSM1 skoSM1 skoSM1 skoSM1 skoSM1 skoSM1 skoSM1 skoSM1 skoSM1 skoSM1)) (* 6198727824000 (* skoSM1 skoSM1 skoSM1 skoSM1 skoSM1 skoSM1 skoSM1 skoSM1 skoSM1 skoSM1 skoSM1 skoSP1)) (* (- 2479491129600) (* skoSM1 skoSM1 skoSM1 skoSM1 skoSM1 skoSM1 skoSM1 skoSM1 skoSM1 skoSM1 skoSP1 skoSP1)) (* (- 12397455648000) (* skoSM1 skoSM1 skoSM1 skoSM1 skoSM1 skoSM1 skoSM1 skoSM1 skoSM1 skoSM1 skoSM1 skoSM1 skoSM1)) (* 24794911296000 (* skoSM1 skoSM1 skoSM1 skoSM1 skoSM1 skoSM1 skoSM1 skoSM1 skoSM1 skoSM1 skoSM1 skoSM1 skoSP1)) (* (- 12397455648000) (* skoSM1 skoSM1 skoSM1 skoSM1 skoSM1 skoSM1 skoSM1 skoSM1 skoSM1 skoSM1 skoSM1 skoSP1 skoSP1)) (* (- 24794911296000) (* skoSM1 skoSM1 skoSM1 skoSM1 skoSM1 skoSM1 skoSM1 skoSM1 skoSM1 skoSM1 skoSM1 skoSM1 skoSM1 skoSM1)) (* 74384733888000 (* skoSM1 skoSM1 skoSM1 skoSM1 skoSM1 skoSM1 skoSM1 skoSM1 skoSM1 skoSM1 skoSM1 skoSM1 skoSM1 skoSP1)) (* (- 49589822592000) (* skoSM1 skoSM1 skoSM1 skoSM1 skoSM1 skoSM1 skoSM1 skoSM1 skoSM1 skoSM1 skoSM1 skoSM1 skoSP1 skoSP1)) (* (- 49589822592000) (* skoSM1 skoSM1 skoSM1 skoSM1 skoSM1 skoSM1 skoSM1 skoSM1 skoSM1 skoSM1 skoSM1 skoSM1 skoSM1 skoSM1 skoSM1)) (* 148769467776000 (* skoSM1 skoSM1 skoSM1 skoSM1 skoSM1 skoSM1 skoSM1 skoSM1 skoSM1 skoSM1 skoSM1 skoSM1 skoSM1 skoSM1 skoSP1)) (* (- 148769467776000) (* skoSM1 skoSM1 skoSM1 skoSM1 skoSM1 skoSM1 skoSM1 skoSM1 skoSM1 skoSM1 skoSM1 skoSM1 skoSM1 skoSP1 skoSP1)) (* (- 297538935552000) (* skoSM1 skoSM1 skoSM1 skoSM1 skoSM1 skoSM1 skoSM1 skoSM1 skoSM1 skoSM1 skoSM1 skoSM1 skoSM1 skoSM1 skoSP1 skoSP1)) (* (- 595077871104000) (* skoSM1 skoSM1 skoSM1 skoSM1 skoSM1 skoSM1 skoSM1 skoSM1 skoSM1 skoSM1 skoSM1 skoSM1 skoSM1 skoSM1 skoSM1 skoSP1 skoSP1))) 1)) (and (not (<= skoX 1)) (and (not (<= skoSP1 0)) (and (not (<= skoSM1 0)) (and (not (<= skoS 0)) (not (<= (* (- 1) skoX) (- 5)))))))))
(set-info :status unsat)
(check-sat)
